c random formula
p cnf 10 35
3 8 -1 0
6 2 -1 0
1 9 4 0
-4 -1 -7 0
-2 -1 4 0
5 6 9 0
5 -7 3 0
9 -5 1 0
-10 -5 8 0
5 -8 -9 0
9 -2 8 0
-10 4 9 0
9 8 1 0
1 -2 -5 0
7 1 5 0
7 10 -8 0
-3 9 -1 0
-10 -3 1 0
-7 -6 -4 0
8 -10 -9 0
-6 10 -2 0
7 -8 9 0
2 -6 5 0
-1 6 -9 0
-6 -10 -4 0
-7 9 2 0
-10 9 3 0
5 6 -3 0
1 7 9 0
-8 1 3 0
-5 3 4 0
-9 1 5 0
7 -2 -4 0
-3 -1 -5 0
9 -2 7 0
